s td 24 5 25
b 1 7 8
b 2 7 15
b 3 3 11
b 4 22 24
b 5 2 16 17
b 6 1 3 19
b 7 6 14 24
b 8 1 6 24
b 9 10 15 18
b 10 1 19 24
b 11 1 9 24
b 12 16 20 24
b 13 10 15 16 24
b 14 4 13 16 17
b 15 4 12 23 24
b 16 4 9 12 13 24
b 17 4 12 13 16 24
b 18 12 13 15 16 24
b 19 15 16 24
b 20 16 24
b 21 24
b 22 5
b 23 21
b 24 25
1 2
1 22
1 23
1 24
2 19
3 6
4 21
5 14
6 10
7 8
8 11
9 13
10 11
11 16
12 20
13 19
14 17
15 17
16 17
17 18
18 19
19 20
20 21
